4 10
321 203 282 260 
0 18 40 95 58 71 77 48 95 57 5 7 29 2 38 38 11 44 7 78 63 1
1 35 96 51 39 60 73 76 8 38 30 47 35 91 19 75 97 34 50 52 12 3
2 96 82 97 53 5 23 6 94 10 93 23 34 52 11 45 82 85 35 48 93 3
3 64 15 49 62 25 16 2 63 89 4 89 8 92 66 55 89 76 19 2 34 4
4 6 52 74 3 51 53 19 96 97 28 58 96 89 93 20 36 64 47 73 21 4
5 13 90 22 36 30 91 39 37 49 24 76 5 37 16 64 92 53 62 37 13 2
6 94 13 42 40 91 66 39 93 27 55 59 80 15 22 80 72 67 14 68 84 3
7 40 96 72 34 13 73 45 11 85 46 35 38 99 68 1 61 18 33 68 96 3
8 83 97 35 64 88 30 40 5 52 27 81 25 51 46 20 85 20 2 40 81 2
9 75 62 43 17 12 63 72 18 80 46 34 5 82 91 65 89 1 21 4 21 3
